50
4745

374 515
931 465
461 389
788 665
32 719
537 709
560 359
606 628
456 573
628 222
653 32
546 705
728 633
248 770
799 244
328 584
525 484
691 931
860 463
676 802
536 143
859 662
704 692
673 270
124 664
151 555
822 562
46 483
941 981
770 436
929 648
356 455
152 595
205 697
902 937
110 449
964 4
98 510
985 660
246 692
267 1000
363 338
681 677
70 482
96 726
163 627
740 727
426 665
689 591
606 59
